NAME : ct_3_n_2_k10_t_60
COMMENT : (ct_3_n_2_k10_t_60, Min no of trucks: 2, Optimal value: 312.807816797992, Split: No)
TYPE : SDVRP
DIMENSION : 4
EDGE_WEIGHT_TYPE : EUC_2D
CAPACITY : 10
NODE_COORD_SECTION
1 100 100
2 110 34
3 124 105
4 76 161
DEMAND_SECTION
1 0
2 4
3 5
4 3
DEPOT_SECTION
 1
EOF